p edge 40 77
e 1 34
e 1 36
e 2 5
e 2 9
e 3 14
e 3 20
e 3 29
e 3 30
e 3 39
e 5 8
e 5 12
e 5 27
e 5 37
e 5 38
e 6 16
e 6 22
e 6 23
e 6 27
e 6 39
e 7 16
e 7 17
e 7 20
e 7 29
e 8 16
e 8 24
e 8 34
e 8 35
e 9 20
e 9 25
e 9 33
e 10 27
e 10 36
e 10 37
e 11 23
e 11 28
e 11 31
e 11 34
e 12 17
e 12 18
e 12 37
e 13 24
e 13 34
e 14 22
e 14 27
e 14 28
e 14 32
e 15 34
e 15 35
e 16 22
e 16 24
e 16 39
e 16 40
e 17 30
e 19 24
e 19 25
e 20 28
e 20 31
e 20 33
e 21 35
e 22 24
e 22 29
e 22 30
e 22 40
e 23 25
e 23 32
e 23 35
e 24 33
e 25 33
e 25 37
e 27 39
e 28 29
e 28 34
e 29 39
e 31 35
e 31 39
e 32 39
e 36 37
